feasible solution found by trivial heuristic after 0.0 seconds, objective value 0.000000e+00
presolving:
(round 1, fast)       16 del vars, 89 del conss, 0 add conss, 0 chg bounds, 0 chg sides, 0 chg coeffs, 0 upgd conss, 0 impls, 711 clqs
(round 2, fast)       20 del vars, 89 del conss, 0 add conss, 0 chg bounds, 0 chg sides, 0 chg coeffs, 0 upgd conss, 0 impls, 711 clqs
   (0.0s) running MILP presolver
   (0.0s) MILP presolver (2 rounds): 0 aggregations, 19 fixings, 0 bound changes
(round 3, medium)     39 del vars, 89 del conss, 0 add conss, 0 chg bounds, 0 chg sides, 0 chg coeffs, 0 upgd conss, 0 impls, 708 clqs
(round 4, fast)       41 del vars, 94 del conss, 0 add conss, 0 chg bounds, 0 chg sides, 0 chg coeffs, 0 upgd conss, 0 impls, 706 clqs
(round 5, exhaustive) 41 del vars, 97 del conss, 0 add conss, 0 chg bounds, 3 chg sides, 0 chg coeffs, 0 upgd conss, 0 impls, 706 clqs
(round 6, exhaustive) 41 del vars, 97 del conss, 0 add conss, 0 chg bounds, 3 chg sides, 0 chg coeffs, 703 upgd conss, 0 impls, 706 clqs
(round 7, medium)     167 del vars, 97 del conss, 0 add conss, 0 chg bounds, 3 chg sides, 126 chg coeffs, 703 upgd conss, 0 impls, 706 clqs
(round 8, fast)       172 del vars, 99 del conss, 0 add conss, 0 chg bounds, 3 chg sides, 126 chg coeffs, 703 upgd conss, 0 impls, 704 clqs
   (0.0s) running MILP presolver
   (0.0s) MILP presolver found nothing
(round 9, exhaustive) 172 del vars, 102 del conss, 0 add conss, 0 chg bounds, 3 chg sides, 126 chg coeffs, 703 upgd conss, 0 impls, 704 clqs
   (0.0s) probing: 51/548 (9.3%) - 0 fixings, 0 aggregations, 0 implications, 0 bound changes
   (0.0s) probing aborted: 50/50 successive totally useless probings
   (0.0s) symmetry computation started: requiring (bin +, int -, cont +), (fixed: bin -, int +, cont -)
   (0.0s) no symmetry present
presolving (10 rounds: 10 fast, 6 medium, 4 exhaustive):
 172 deleted vars, 102 deleted constraints, 0 added constraints, 0 tightened bounds, 0 added holes, 3 changed sides, 126 changed coefficients
 0 implications, 704 cliques
presolved problem has 548 variables (548 bin, 0 int, 0 impl, 0 cont) and 698 constraints
    698 constraints of type <setppc>
Presolving Time: 0.02

 time | node  | left  |LP iter|LP it/n|mem/heur|mdpt |vars |cons |rows |cuts |sepa|confs|strbr|  dualbound   | primalbound  |  gap   | compl. 
t 0.0s|     1 |     0 |     0 |     - | trivial|   0 | 548 | 698 |   0 |   0 |  0 |   0 |   0 | 2.274174e+06 | 1.428946e+05 |1491.50%| unknown
p 0.0s|     1 |     0 |     0 |     - |  clique|   0 | 548 | 698 | 698 |   0 |  0 |   0 |   0 | 2.274174e+06 | 4.817558e+05 | 372.06%| unknown
  0.1s|     1 |     0 |  2233 |     - |  7830k |   0 | 548 | 698 | 698 |   0 |  0 |   0 |   0 | 6.100463e+05 | 4.817558e+05 |  26.63%| unknown
  0.2s|     1 |     0 |  2344 |     - |    11M |   0 | 548 | 698 | 701 |   3 |  1 |   0 |   0 | 6.094389e+05 | 4.817558e+05 |  26.50%| unknown
  0.3s|     1 |     0 |  2474 |     - |    13M |   0 | 548 | 698 | 706 |   8 |  2 |   0 |   0 | 6.083983e+05 | 4.817558e+05 |  26.29%| unknown
  0.3s|     1 |     0 |  2594 |     - |    15M |   0 | 548 | 698 | 711 |  13 |  3 |   0 |   0 | 6.076268e+05 | 4.817558e+05 |  26.13%| unknown
  0.4s|     1 |     0 |  2799 |     - |    18M |   0 | 548 | 698 | 716 |  18 |  4 |   0 |   0 | 6.063188e+05 | 4.817558e+05 |  25.86%| unknown
  0.5s|     1 |     0 |  2905 |     - |    20M |   0 | 548 | 698 | 720 |  22 |  5 |   0 |   0 | 6.059708e+05 | 4.817558e+05 |  25.78%| unknown
  0.5s|     1 |     0 |  3094 |     - |    23M |   0 | 548 | 698 | 725 |  27 |  6 |   0 |   0 | 6.053340e+05 | 4.817558e+05 |  25.65%| unknown
  0.6s|     1 |     0 |  3161 |     - |    25M |   0 | 548 | 698 | 728 |  30 |  7 |   0 |   0 | 6.050712e+05 | 4.817558e+05 |  25.60%| unknown
  0.7s|     1 |     0 |  3257 |     - |    27M |   0 | 548 | 698 | 730 |  32 |  8 |   0 |   0 | 6.048578e+05 | 4.817558e+05 |  25.55%| unknown
  0.8s|     1 |     0 |  3376 |     - |    30M |   0 | 548 | 698 | 732 |  34 |  9 |   0 |   0 | 6.046641e+05 | 4.817558e+05 |  25.51%| unknown
  0.9s|     1 |     0 |  3451 |     - |    32M |   0 | 548 | 698 | 735 |  37 | 10 |   0 |   0 | 6.045990e+05 | 4.817558e+05 |  25.50%| unknown
  0.9s|     1 |     0 |  3502 |     - |    32M |   0 | 548 | 698 | 739 |  41 | 11 |   0 |   0 | 6.045609e+05 | 4.817558e+05 |  25.49%| unknown
  1.0s|     1 |     0 |  3562 |     - |    32M |   0 | 548 | 698 | 741 |  43 | 12 |   0 |   0 | 6.045055e+05 | 4.817558e+05 |  25.48%| unknown
 time | node  | left  |LP iter|LP it/n|mem/heur|mdpt |vars |cons |rows |cuts |sepa|confs|strbr|  dualbound   | primalbound  |  gap   | compl. 
  1.0s|     1 |     0 |  3660 |     - |    32M |   0 | 548 | 698 | 744 |  46 | 13 |   0 |   0 | 6.043893e+05 | 4.817558e+05 |  25.46%| unknown
  1.0s|     1 |     0 |  3784 |     - |    32M |   0 | 548 | 698 | 748 |  50 | 14 |   0 |   0 | 6.040161e+05 | 4.817558e+05 |  25.38%| unknown
  1.1s|     1 |     0 |  3824 |     - |    32M |   0 | 548 | 698 | 752 |  54 | 15 |   0 |   0 | 6.039554e+05 | 4.817558e+05 |  25.37%| unknown
  1.1s|     1 |     0 |  3890 |     - |    32M |   0 | 548 | 698 | 753 |  56 | 16 |   0 |   0 | 6.038658e+05 | 4.817558e+05 |  25.35%| unknown
  1.2s|     1 |     0 |  3910 |     - |    32M |   0 | 548 | 698 | 754 |  57 | 17 |   0 |   0 | 6.038511e+05 | 4.817558e+05 |  25.34%| unknown
  1.2s|     1 |     0 |  3955 |     - |    32M |   0 | 548 | 698 | 758 |  61 | 18 |   0 |   0 | 6.037427e+05 | 4.817558e+05 |  25.32%| unknown
  1.2s|     1 |     0 |  3978 |     - |    32M |   0 | 548 | 698 | 762 |  65 | 19 |   0 |   0 | 6.037270e+05 | 4.817558e+05 |  25.32%| unknown
  1.3s|     1 |     0 |  4054 |     - |    32M |   0 | 548 | 698 | 763 |  66 | 20 |   0 |   0 | 6.035892e+05 | 4.817558e+05 |  25.29%| unknown
  1.3s|     1 |     0 |  4083 |     - |    33M |   0 | 548 | 698 | 764 |  67 | 21 |   0 |   0 | 6.035731e+05 | 4.817558e+05 |  25.29%| unknown
  1.3s|     1 |     0 |  4097 |     - |    33M |   0 | 548 | 698 | 764 |  68 | 22 |   0 |   0 | 6.035708e+05 | 4.817558e+05 |  25.29%| unknown
d 1.5s|     1 |     0 |  5854 |     - |farkasdi|   0 | 548 | 698 | 764 |   0 | 24 |   0 |   0 | 6.035708e+05 | 5.319075e+05 |  13.47%| unknown
  1.5s|     1 |     0 |  5854 |     - |    33M |   0 | 548 | 698 | 764 |  68 | 24 |   0 |   0 | 6.035708e+05 | 5.319075e+05 |  13.47%| unknown
  2.6s|     1 |     2 |  5854 |     - |    33M |   0 | 548 | 698 | 764 |  68 | 26 |   0 |  37 | 6.008791e+05 | 5.319075e+05 |  12.97%| unknown
r 5.0s|    11 |    10 |  7847 | 379.1 |rounding|  10 | 548 | 698 | 748 |  71 |  1 |   0 | 258 | 6.008791e+05 | 5.330526e+05 |  12.72%| unknown
i 5.0s|    11 |    10 |  7850 | 379.4 |  oneopt|  10 | 548 | 698 | 750 |  73 |  2 |   0 | 258 | 6.008791e+05 | 5.453304e+05 |  10.19%| unknown
 time | node  | left  |LP iter|LP it/n|mem/heur|mdpt |vars |cons |rows |cuts |sepa|confs|strbr|  dualbound   | primalbound  |  gap   | compl. 
* 5.0s|    11 |    10 |  7850 | 379.4 |    LP  |  10 | 548 | 698 | 750 |  73 |  4 |   0 | 258 | 6.008791e+05 | 5.511545e+05 |   9.02%| unknown
* 6.7s|    18 |    13 |  9753 | 335.1 |strongbr|  10 | 548 | 698 | 745 |  75 |  1 |   0 | 362 | 5.998722e+05 | 5.578212e+05 |   7.54%| unknown
* 8.0s|    26 |    13 | 10814 | 270.3 |    LP  |  10 | 548 | 728 | 756 |  86 |  5 |  30 | 620 | 5.998722e+05 | 5.586451e+05 |   7.38%|   3.47%
* 8.2s|    30 |    11 | 11202 | 246.4 |strongbr|  10 | 548 | 730 | 756 |  95 |  5 |  32 | 637 | 5.998722e+05 | 5.592398e+05 |   7.27%|   4.49%
* 9.3s|    57 |    22 | 15501 | 204.4 |    LP  |  12 | 548 | 736 | 758 | 117 |  2 |  38 | 666 | 5.998285e+05 | 5.595448e+05 |   7.20%|   5.00%
* 9.3s|    59 |    22 | 15514 | 197.6 |    LP  |  13 | 548 | 736 | 758 | 117 |  1 |  38 | 666 | 5.998285e+05 | 5.598090e+05 |   7.15%|   5.03%
* 9.3s|    60 |    21 | 15516 | 194.2 |    LP  |  13 | 548 | 736 | 758 | 117 |  2 |  38 | 666 | 5.998285e+05 | 5.599390e+05 |   7.12%|   5.04%
* 9.7s|    75 |    25 | 17896 | 187.0 |    LP  |  14 | 548 | 736 | 761 | 124 |  1 |  38 | 677 | 5.997618e+05 | 5.632350e+05 |   6.49%|   5.09%
* 9.9s|    81 |    25 | 18116 | 175.8 |    LP  |  14 | 548 | 736 | 756 | 130 |  1 |  38 | 677 | 5.997618e+05 | 5.635690e+05 |   6.42%|   6.03%
*10.1s|    87 |    24 | 18930 | 173.0 |    LP  |  14 | 548 | 736 | 753 | 141 |  1 |  38 | 677 | 5.997618e+05 | 5.654800e+05 |   6.06%|   7.03%
 10.2s|   100 |    23 | 19559 | 156.6 |    44M |  15 | 548 | 736 | 753 | 141 |  0 |  38 | 677 | 5.997618e+05 | 5.654800e+05 |   6.06%|   7.69%
*10.5s|   120 |    31 | 22322 | 153.5 |    LP  |  16 | 548 | 736 | 753 | 158 |  2 |  38 | 677 | 5.992453e+05 | 5.663922e+05 |   5.80%|   7.79%
*11.0s|   155 |    32 | 25669 | 140.3 |    LP  |  16 | 548 | 739 | 759 | 169 |  1 |  41 | 692 | 5.966992e+05 | 5.669535e+05 |   5.25%|   9.32%
 12.0s|   200 |    43 | 32445 | 142.7 |    49M |  17 | 548 | 739 | 756 | 207 |  0 |  41 | 703 | 5.955433e+05 | 5.669535e+05 |   5.04%|  10.04%
 13.3s|   300 |    51 | 43434 | 131.7 |    53M |  19 | 548 | 739 | 762 | 237 |  1 |  41 | 723 | 5.939081e+05 | 5.669535e+05 |   4.75%|  12.25%
 time | node  | left  |LP iter|LP it/n|mem/heur|mdpt |vars |cons |rows |cuts |sepa|confs|strbr|  dualbound   | primalbound  |  gap   | compl. 
 14.2s|   400 |    53 | 50841 | 117.3 |    54M |  22 | 548 | 742 | 763 | 251 |  1 |  44 | 745 | 5.938917e+05 | 5.669535e+05 |   4.75%|  13.14%
 15.2s|   500 |    57 | 59649 | 111.4 |    54M |  22 | 548 | 755 | 757 | 273 |  1 |  57 | 782 | 5.935060e+05 | 5.669535e+05 |   4.68%|  13.47%
*16.3s|   558 |    64 | 66535 | 112.2 |    LP  |  22 | 548 | 774 | 760 | 295 |  1 |  76 | 816 | 5.924335e+05 | 5.675689e+05 |   4.38%|  14.48%
 16.5s|   600 |    66 | 69759 | 109.7 |    55M |  22 | 548 | 774 | 767 | 299 |  0 |  76 | 816 | 5.921304e+05 | 5.675689e+05 |   4.33%|  15.13%
*17.5s|   658 |    61 | 75256 | 108.4 |    LP  |  23 | 548 | 774 | 759 | 331 |  1 |  76 | 826 | 5.917957e+05 | 5.707910e+05 |   3.68%|  16.62%
 18.0s|   700 |    57 | 79172 | 107.5 |    55M |  23 | 548 | 774 | 765 | 349 |  0 |  76 | 835 | 5.916762e+05 | 5.707910e+05 |   3.66%|  17.90%
 19.0s|   800 |    59 | 89167 | 106.5 |    56M |  25 | 548 | 796 | 764 | 366 |  2 |  98 | 878 | 5.914412e+05 | 5.707910e+05 |   3.62%|  19.60%
 20.3s|   900 |    63 | 99970 | 106.7 |    56M |  25 | 548 | 813 | 760 | 379 |  2 | 115 | 901 | 5.898375e+05 | 5.707910e+05 |   3.34%|  21.60%
*20.6s|   942 |    63 |103885 | 106.1 |    LP  |  25 | 548 | 825 | 766 | 379 |  2 | 127 | 923 | 5.898375e+05 | 5.713269e+05 |   3.24%|  21.71%
*20.7s|   957 |    62 |105203 | 105.8 |    LP  |  25 | 548 | 825 | 766 | 379 |  2 | 127 | 923 | 5.898375e+05 | 5.714726e+05 |   3.21%|  22.22%
 21.1s|  1000 |    65 |109557 | 105.6 |    56M |  25 | 548 | 835 | 763 | 381 |  1 | 137 | 935 | 5.898375e+05 | 5.714726e+05 |   3.21%|  22.83%
 22.2s|  1100 |    63 |119485 | 105.0 |    56M |  25 | 548 | 854 | 766 | 394 |  0 | 156 | 973 | 5.896523e+05 | 5.714726e+05 |   3.18%|  23.12%
Restart triggered after 50 consecutive estimations that the remaining tree will be large
(run 1, node 1137) performing user restart

(restart) converted 55 cuts from the global cut pool into linear constraints

presolving:
(round 1, exhaustive) 0 del vars, 0 del conss, 0 add conss, 0 chg bounds, 0 chg sides, 0 chg coeffs, 55 upgd conss, 0 impls, 741 clqs
(round 2, medium)     0 del vars, 2 del conss, 2 add conss, 0 chg bounds, 2 chg sides, 6 chg coeffs, 55 upgd conss, 0 impls, 741 clqs
(round 3, exhaustive) 0 del vars, 12 del conss, 2 add conss, 0 chg bounds, 2 chg sides, 7 chg coeffs, 55 upgd conss, 0 impls, 741 clqs
(round 4, exhaustive) 0 del vars, 12 del conss, 2 add conss, 0 chg bounds, 2 chg sides, 43 chg coeffs, 55 upgd conss, 0 impls, 741 clqs
presolving (5 rounds: 5 fast, 5 medium, 4 exhaustive):
 0 deleted vars, 12 deleted constraints, 2 added constraints, 0 tightened bounds, 0 added holes, 2 changed sides, 43 changed coefficients
 0 implications, 741 cliques
presolved problem has 548 variables (548 bin, 0 int, 0 impl, 0 cont) and 901 constraints
     17 constraints of type <knapsack>
    726 constraints of type <setppc>
    158 constraints of type <logicor>
Presolving Time: 0.04
transformed 100/100 original solutions to the transformed problem space

 time | node  | left  |LP iter|LP it/n|mem/heur|mdpt |vars |cons |rows |cuts |sepa|confs|strbr|  dualbound   | primalbound  |  gap   | compl. 
 22.7s|     1 |     0 |125381 |     - |    54M |   0 | 548 | 901 | 743 |   0 |  0 | 158 | 980 | 5.896523e+05 | 5.714726e+05 |   3.18%| unknown
 22.7s|     1 |     0 |125483 |     - |    55M |   0 | 548 | 901 | 744 |   1 |  1 | 158 | 980 | 5.896523e+05 | 5.714726e+05 |   3.18%| unknown
 22.8s|     1 |     0 |125563 |     - |    55M |   0 | 548 | 901 | 745 |   2 |  2 | 158 | 980 | 5.896523e+05 | 5.714726e+05 |   3.18%| unknown
 22.9s|     1 |     0 |125671 |     - |    55M |   0 | 548 | 901 | 748 |   5 |  3 | 158 | 980 | 5.896523e+05 | 5.714726e+05 |   3.18%| unknown
 23.0s|     1 |     0 |125805 |     - |    56M |   0 | 548 | 901 | 751 |   8 |  4 | 158 | 980 | 5.896523e+05 | 5.714726e+05 |   3.18%| unknown
 23.1s|     1 |     0 |125955 |     - |    58M |   0 | 548 | 901 | 753 |  10 |  5 | 158 | 980 | 5.896523e+05 | 5.714726e+05 |   3.18%| unknown
 23.1s|     1 |     0 |126055 |     - |    60M |   0 | 548 | 901 | 755 |  12 |  6 | 158 | 980 | 5.896523e+05 | 5.714726e+05 |   3.18%| unknown
 23.2s|     1 |     0 |126138 |     - |    62M |   0 | 548 | 901 | 758 |  15 |  7 | 158 | 980 | 5.896523e+05 | 5.714726e+05 |   3.18%| unknown
 23.4s|     1 |     0 |126210 |     - |    65M |   0 | 548 | 901 | 760 |  17 |  8 | 158 | 980 | 5.896523e+05 | 5.714726e+05 |   3.18%| unknown
 23.5s|     1 |     0 |126306 |     - |    68M |   0 | 548 | 901 | 763 |  20 |  9 | 158 | 980 | 5.896523e+05 | 5.714726e+05 |   3.18%| unknown
 23.6s|     1 |     0 |126370 |     - |    71M |   0 | 548 | 901 | 765 |  22 | 10 | 158 | 980 | 5.896523e+05 | 5.714726e+05 |   3.18%| unknown
 23.7s|     1 |     0 |126445 |     - |    71M |   0 | 548 | 901 | 767 |  24 | 11 | 158 | 980 | 5.896523e+05 | 5.714726e+05 |   3.18%| unknown
 23.7s|     1 |     0 |126482 |     - |    72M |   0 | 548 | 901 | 763 |  25 | 12 | 158 | 980 | 5.896523e+05 | 5.714726e+05 |   3.18%| unknown
 23.8s|     1 |     0 |126516 |     - |    72M |   0 | 548 | 901 | 764 |  26 | 13 | 158 | 980 | 5.896523e+05 | 5.714726e+05 |   3.18%| unknown
 23.9s|     1 |     0 |126555 |     - |    72M |   0 | 548 | 901 | 766 |  28 | 14 | 158 | 980 | 5.896523e+05 | 5.714726e+05 |   3.18%| unknown
 time | node  | left  |LP iter|LP it/n|mem/heur|mdpt |vars |cons |rows |cuts |sepa|confs|strbr|  dualbound   | primalbound  |  gap   | compl. 
 24.0s|     1 |     0 |126585 |     - |    72M |   0 | 548 | 901 | 769 |  31 | 15 | 158 | 980 | 5.896523e+05 | 5.714726e+05 |   3.18%| unknown
 24.0s|     1 |     0 |126618 |     - |    72M |   0 | 548 | 901 | 770 |  32 | 16 | 158 | 980 | 5.896523e+05 | 5.714726e+05 |   3.18%| unknown
 25.2s|     1 |     2 |129382 |     - |    72M |   0 | 548 | 911 | 770 |  32 | 16 | 168 | 998 | 5.896523e+05 | 5.714726e+05 |   3.18%| unknown
 28.7s|   100 |    19 |141794 | 108.5 |    73M |  21 | 548 | 911 | 755 |  89 |  1 | 168 |1015 | 5.896523e+05 | 5.714726e+05 |   3.18%|   1.44%
 32.5s|   200 |    19 |155810 | 110.8 |    72M |  21 | 548 | 933 | 758 | 174 |  1 | 190 |1046 | 5.896523e+05 | 5.714726e+05 |   3.18%|   5.38%
 36.9s|   300 |    17 |172594 | 114.8 |    75M |  21 | 548 | 992 | 773 | 248 |  1 | 249 |1151 | 5.896523e+05 | 5.714726e+05 |   3.18%|  11.00%
 40.6s|   400 |    19 |188108 | 117.4 |    75M |  21 | 548 |1021 | 752 | 323 |  1 | 278 |1229 | 5.896523e+05 | 5.714726e+05 |   3.18%|  14.13%
 45.7s|   500 |    21 |208314 | 122.6 |    75M |  21 | 548 |1116 | 767 | 422 |  1 | 373 |1346 | 5.896523e+05 | 5.714726e+05 |   3.18%|  18.98%
 49.4s|   600 |    27 |222557 | 123.8 |    75M |  21 | 548 |1156 | 760 | 487 |  0 | 413 |1390 | 5.896523e+05 | 5.714726e+05 |   3.18%|  19.40%
 51.6s|   700 |    27 |234079 | 123.3 |    75M |  22 | 548 |1182 | 763 | 529 |  1 | 439 |1439 | 5.896523e+05 | 5.714726e+05 |   3.18%|  19.55%
 53.2s|   800 |    41 |246140 | 123.2 |    75M |  22 | 548 |1200 | 764 | 548 |  0 | 457 |1466 | 5.896523e+05 | 5.714726e+05 |   3.18%|  20.43%
 55.2s|   900 |    37 |256908 | 122.4 |    77M |  22 | 548 |1239 | 762 | 570 |  0 | 496 |1529 | 5.896523e+05 | 5.714726e+05 |   3.18%|  20.55%
 56.1s|  1000 |    45 |268306 | 122.0 |    77M |  23 | 548 |1252 | 763 | 573 |  2 | 509 |1544 | 5.896523e+05 | 5.714726e+05 |   3.18%|  20.57%
 57.9s|  1100 |    43 |282020 | 122.7 |    77M |  25 | 548 |1330 | 764 | 586 |  2 | 587 |1645 | 5.896523e+05 | 5.714726e+05 |   3.18%|  20.98%
 59.7s|  1200 |    49 |294933 | 123.0 |    77M |  30 | 548 |1355 | 764 | 597 |  0 | 612 |1705 | 5.884611e+05 | 5.714726e+05 |   2.97%|  26.42%
 time | node  | left  |LP iter|LP it/n|mem/heur|mdpt |vars |cons |rows |cuts |sepa|confs|strbr|  dualbound   | primalbound  |  gap   | compl. 
 60.9s|  1300 |    55 |306866 | 122.8 |    77M |  30 | 548 |1365 | 764 | 603 |  0 | 622 |1764 | 5.878618e+05 | 5.714726e+05 |   2.87%|  27.43%
 61.8s|  1400 |    57 |316310 | 121.7 |    77M |  34 | 548 |1374 | 762 | 604 |  1 | 631 |1810 | 5.876997e+05 | 5.714726e+05 |   2.84%|  27.71%
 62.8s|  1500 |    51 |326028 | 120.8 |    77M |  36 | 548 |1394 | 765 | 608 |  3 | 651 |1874 | 5.876530e+05 | 5.714726e+05 |   2.83%|  27.79%
 64.9s|  1600 |    53 |340406 | 121.6 |    77M |  36 | 548 |1432 | 765 | 633 |  2 | 689 |1962 | 5.870202e+05 | 5.714726e+05 |   2.72%|  35.04%
 66.5s|  1700 |    54 |352369 | 121.5 |    76M |  36 | 548 |1502 | 765 | 643 |  0 | 760 |2039 | 5.864682e+05 | 5.714726e+05 |   2.62%|  39.50%
 68.0s|  1800 |    56 |364175 | 121.4 |    76M |  36 | 548 |1569 | 765 | 653 |  0 | 828 |2127 | 5.863545e+05 | 5.714726e+05 |   2.60%|  41.58%
 70.8s|  1900 |    64 |377501 | 121.8 |    76M |  36 | 548 |1581 | 767 | 707 |  0 | 841 |2170 | 5.858496e+05 | 5.714726e+05 |   2.52%|  44.52%
 73.4s|  2000 |    56 |390093 | 121.9 |    76M |  36 | 548 |1608 | 761 | 757 |  3 | 869 |2207 | 5.854772e+05 | 5.714726e+05 |   2.45%|  46.33%
 75.8s|  2100 |    56 |402975 | 122.1 |    76M |  36 | 548 |1620 | 770 | 801 |  1 | 882 |2254 | 5.852932e+05 | 5.714726e+05 |   2.42%|  49.06%
 77.4s|  2200 |    54 |414630 | 122.0 |    76M |  36 | 548 |1634 | 764 | 821 |  1 | 897 |2297 | 5.846651e+05 | 5.714726e+05 |   2.31%|  52.19%
 78.3s|  2300 |    54 |424364 | 121.3 |    76M |  36 | 548 |1682 | 763 | 833 |  0 | 945 |2337 | 5.845766e+05 | 5.714726e+05 |   2.29%|  52.34%
 79.3s|  2400 |    50 |434189 | 120.6 |    76M |  36 | 548 |1701 | 760 | 843 |  0 | 965 |2363 | 5.845700e+05 | 5.714726e+05 |   2.29%|  52.40%
 80.7s|  2500 |    46 |443671 | 119.9 |    76M |  36 | 548 |1715 | 761 | 867 |  0 | 979 |2391 | 5.845700e+05 | 5.714726e+05 |   2.29%|  52.56%
 82.2s|  2600 |    46 |454069 | 119.5 |    76M |  36 | 548 |1732 | 767 | 892 |  3 | 997 |2412 | 5.844719e+05 | 5.714726e+05 |   2.27%|  52.88%
 83.1s|  2700 |    46 |463403 | 118.8 |    76M |  36 | 548 |1741 | 760 | 894 |  1 |1008 |2447 | 5.843527e+05 | 5.714726e+05 |   2.25%|  54.18%
 time | node  | left  |LP iter|LP it/n|mem/heur|mdpt |vars |cons |rows |cuts |sepa|confs|strbr|  dualbound   | primalbound  |  gap   | compl. 
 84.2s|  2800 |    42 |472724 | 118.1 |    76M |  36 | 548 |1748 | 768 | 903 |  0 |1015 |2506 | 5.839541e+05 | 5.714726e+05 |   2.18%|  54.87%
 86.3s|  2900 |    40 |485803 | 118.5 |    76M |  36 | 548 |1760 | 765 | 949 |  0 |1028 |2531 | 5.838112e+05 | 5.714726e+05 |   2.16%|  55.77%
 87.0s|  3000 |    46 |497215 | 118.4 |    76M |  36 | 548 |1768 | 764 | 949 |  1 |1037 |2548 | 5.837767e+05 | 5.714726e+05 |   2.15%|  56.50%
 87.7s|  3100 |    48 |506326 | 117.7 |    76M |  36 | 548 |1790 | 764 | 954 |  2 |1060 |2568 | 5.833790e+05 | 5.714726e+05 |   2.08%|  58.52%
 89.0s|  3200 |    46 |515871 | 117.2 |    76M |  36 | 548 |1800 | 768 | 973 |  1 |1070 |2606 | 5.833790e+05 | 5.714726e+05 |   2.08%|  58.88%
 89.8s|  3300 |    48 |526016 | 116.8 |    76M |  36 | 548 |1810 | 766 | 976 |  1 |1080 |2624 | 5.830427e+05 | 5.714726e+05 |   2.02%|  59.46%
 90.4s|  3400 |    48 |534902 | 116.2 |    77M |  36 | 548 |1810 | 764 | 986 |  1 |1080 |2633 | 5.829321e+05 | 5.714726e+05 |   2.01%|  59.65%
 91.1s|  3500 |    48 |544491 | 115.8 |    77M |  36 | 548 |1815 | 763 | 995 |  0 |1087 |2642 | 5.826579e+05 | 5.714726e+05 |   1.96%|  60.41%
 91.8s|  3600 |    48 |553860 | 115.3 |    77M |  36 | 548 |1823 | 767 |1003 |  0 |1096 |2655 | 5.822538e+05 | 5.714726e+05 |   1.89%|  63.76%
 92.5s|  3700 |    52 |563899 | 115.0 |    77M |  36 | 548 |1829 | 767 |1010 |  1 |1102 |2677 | 5.807611e+05 | 5.714726e+05 |   1.63%|  66.84%
 93.6s|  3800 |    50 |573734 | 114.7 |    77M |  36 | 548 |1849 | 768 |1012 |  2 |1122 |2729 | 5.805387e+05 | 5.714726e+05 |   1.59%|  69.23%
 94.4s|  3900 |    46 |582827 | 114.2 |    77M |  39 | 548 |1854 | 758 |1014 |  0 |1129 |2748 | 5.798400e+05 | 5.714726e+05 |   1.46%|  70.61%
 95.0s|  4000 |    40 |591469 | 113.7 |    77M |  39 | 548 |1857 | 767 |1017 |  0 |1134 |2756 | 5.794522e+05 | 5.714726e+05 |   1.40%|  72.38%
 95.7s|  4100 |    34 |599777 | 113.1 |    77M |  39 | 548 |1861 | 766 |1023 |  0 |1140 |2763 | 5.789721e+05 | 5.714726e+05 |   1.31%|  73.84%
 96.4s|  4200 |    24 |609581 | 112.8 |    77M |  39 | 548 |1877 | 764 |1025 |  0 |1157 |2779 | 5.789721e+05 | 5.714726e+05 |   1.31%|  74.62%
 time | node  | left  |LP iter|LP it/n|mem/heur|mdpt |vars |cons |rows |cuts |sepa|confs|strbr|  dualbound   | primalbound  |  gap   | compl. 
 97.2s|  4300 |    14 |617973 | 112.3 |    77M |  39 | 548 |1879 | 767 |1029 |  0 |1166 |2795 | 5.788161e+05 | 5.714726e+05 |   1.29%|  74.94%

SCIP Status        : problem is solved [optimal solution found]
Solving Time (sec) : 97.69
Solving Nodes      : 4390 (total of 5527 nodes in 2 runs)
Primal Bound       : +5.71472550521895e+05 (544 solutions)
Dual Bound         : +5.71472550521895e+05
Gap                : 0.00 %
Solve Status: optimal
Solve Time: 97.69 seconds
